(set-logic ALL)
(declare-const BAV1 Bool)
(declare-const BAV2 Bool)
(declare-const BAV3 Bool)
(declare-const BAV4 Bool)
(declare-const BAV5 Bool)
(declare-const BAV6 Bool)
(declare-const BAV7 Bool)
(declare-const BAV8 Bool)
(declare-const BAV9 Bool)
(declare-const BAV10 Bool)
(declare-const BAV11 Bool)
(declare-const BAV12 Bool)
(declare-const BAV13 Bool)
(declare-const BAV14 Bool)
(declare-const BAV15 Bool)
(declare-const BAV16 Bool)
(declare-const BAV17 Bool)
(declare-const BAV18 Bool)
(declare-const BAV19 Bool)
(declare-const BAV20 Bool)
(declare-const BAV21 Bool)
(declare-const BAV22 Bool)
(declare-const BAV23 Bool)
(declare-const BAV24 Bool)
(declare-const BAV25 Bool)
(declare-const BAV26 Bool)
(declare-const BAV27 Bool)
(declare-const BAV28 Bool)
(declare-const BAV29 Bool)
(declare-const BAV30 Bool)
(declare-const BAV31 Bool)
(declare-const BAV32 Bool)
(declare-const BAV33 Bool)
(declare-const BAV34 Bool)
(declare-const BAV35 Bool)
(declare-const BAV36 Bool)
(declare-const BAV37 Bool)
(declare-const BAV38 Bool)
(declare-const BAV39 Bool)
(declare-const BAV40 Bool)
(declare-const BAV41 Bool)
(declare-const BAV42 Bool)
(declare-const BAV43 Bool)
(declare-const BAV44 Bool)
(declare-const BAV45 Bool)
(declare-const BAV46 Bool)
(declare-const BAV47 Bool)
(declare-const BAV48 Bool)
(declare-const BAV49 Bool)
(declare-const BAV50 Bool)
(declare-const BAV51 Bool)
(declare-const BAV52 Bool)
(declare-const BAV53 Bool)
(declare-const BAV54 Bool)
(declare-const BAV55 Bool)
(declare-const BAV56 Bool)
(declare-const BAV57 Bool)
(declare-const BAV58 Bool)
(declare-const BAV59 Bool)
(declare-const BAV60 Bool)
(declare-const BAV61 Bool)
(declare-const BAV62 Bool)
(declare-const BAV63 Bool)
(declare-const BAV64 Bool)
(declare-const BAV65 Bool)
(declare-const BAV66 Bool)
(declare-const BAV67 Bool)
(declare-const BAV68 Bool)
(declare-const BAV69 Bool)
(declare-const BAV70 Bool)
(declare-const BAV71 Bool)
(declare-const BAV72 Bool)
(declare-const BAV73 Bool)
(declare-const BAV74 Bool)
(declare-const BAV75 Bool)
(declare-const BAV76 Bool)
(declare-const BAV77 Bool)
(declare-const BAV78 Bool)
(declare-const BAV79 Bool)
(declare-const BAV80 Bool)
(declare-const BAV81 Bool)
(declare-const BAV82 Bool)
(declare-const BAV83 Bool)
(declare-const GEN62 Int)
(declare-const GEN61 Real)
(declare-const GEN60 Real)
(declare-const GEN59 Real)
(declare-const GEN58 Real)
(declare-const GEN57 Real)
(declare-const GEN56 Real)
(declare-const GEN55 Real)
(declare-const GEN54 Real)
(declare-const GEN53 Int)
(declare-const GEN52 Int)
(declare-const GEN51 Real)
(declare-const GEN50 Real)
(declare-const GEN49 Real)
(declare-const GEN48 Real)
(declare-const GEN47 Real)
(declare-const GEN46 Real)
(declare-const GEN45 Real)
(declare-const GEN44 Real)
(declare-const GEN43 Int)
(declare-const GEN42 Int)
(declare-const GEN41 Real)
(declare-const GEN40 Real)
(declare-const GEN39 Real)
(declare-const GEN38 Real)
(declare-const GEN37 Real)
(declare-const GEN36 Real)
(declare-const GEN35 Real)
(declare-const GEN34 Real)
(declare-const GEN33 Int)
(declare-const GEN32 Int)
(declare-const GEN31 Real)
(declare-const GEN30 Real)
(declare-const GEN29 Real)
(declare-const GEN28 Real)
(declare-const GEN27 Real)
(declare-const GEN26 Real)
(declare-const GEN25 Real)
(declare-const GEN24 Real)
(declare-const GEN23 Int)
(declare-const GEN22 Int)
(declare-const GEN21 Real)
(declare-const GEN20 Real)
(declare-const GEN19 Real)
(declare-const GEN18 Real)
(declare-const GEN17 Real)
(declare-const GEN16 Real)
(declare-const GEN15 Real)
(declare-const GEN14 Real)
(declare-const GEN13 Int)
(declare-const GEN12 Int)
(declare-const GEN11 Real)
(declare-const GEN10 Real)
(declare-const GEN9 Real)
(declare-const GEN8 Real)
(declare-const GEN7 Real)
(declare-const GEN6 Real)
(declare-const GEN5 Real)
(declare-const GEN4 Real)
(declare-const GEN3 Real)
(declare-const GEN2 Real)
(declare-const GEN1 Real)
(declare-fun t@0 () Real)
(declare-fun y2@0 () Real)
(declare-fun y1@0 () Real)
(declare-fun t@5 () Real)
(declare-fun y1@5 () Real)
(declare-fun y2@5 () Real)
(declare-fun t@6 () Real)
(declare-fun y1@6 () Real)
(declare-fun y2@6 () Real)
(declare-fun t@1 () Real)
(declare-fun y1@1 () Real)
(declare-fun y2@1 () Real)
(declare-fun t@7 () Real)
(declare-fun y1@7 () Real)
(declare-fun y2@7 () Real)
(declare-fun y1@10 () Real)
(declare-fun y2@10 () Real)
(declare-fun t@2 () Real)
(declare-fun y1@2 () Real)
(declare-fun y2@2 () Real)
(declare-fun t@8 () Real)
(declare-fun y1@8 () Real)
(declare-fun y2@8 () Real)
(declare-fun t@3 () Real)
(declare-fun y1@3 () Real)
(declare-fun y2@3 () Real)
(declare-fun t@9 () Real)
(declare-fun y1@9 () Real)
(declare-fun y2@9 () Real)
(declare-fun t@4 () Real)
(declare-fun y1@4 () Real)
(declare-fun y2@4 () Real)
(declare-fun t@10 () Real)
(assert (and (and (and (= (+ (* 2.0 (sin t@0)) (+ (* 2.0 (cos t@0)) (* (- 1.0) y2@0))) 0.0) (= (+ (* 2.0 (sin t@0)) (+ (* (- 2.0) (cos t@0)) y1@0)) 0.0)) (= t@0 0.0)) (and (and (and (= (+ t@0 (* (- 1.0) t@1)) (- (/ 1 2))) (<= t@1 7.0)) (= (+ (* 2.0 (sin t@1)) (+ (* (- 2.0) (cos t@1)) y1@1)) 0.0)) (= (+ (* 2.0 (sin t@1)) (+ (* 2.0 (cos t@1)) (* (- 1.0) y2@1))) 0.0)) (and (and (and (= (+ t@1 (* (- 1.0) t@2)) (- (/ 1 2))) (<= t@2 7.0)) (= (+ (* 2.0 (sin t@2)) (+ (* (- 2.0) (cos t@2)) y1@2)) 0.0)) (= (+ (* 2.0 (sin t@2)) (+ (* 2.0 (cos t@2)) (* (- 1.0) y2@2))) 0.0)) (and (and (and (= (+ t@2 (* (- 1.0) t@3)) (- (/ 1 2))) (<= t@3 7.0)) (= (+ (* 2.0 (sin t@3)) (+ (* (- 2.0) (cos t@3)) y1@3)) 0.0)) (= (+ (* 2.0 (sin t@3)) (+ (* 2.0 (cos t@3)) (* (- 1.0) y2@3))) 0.0)) (and (and (and (= (+ t@3 (* (- 1.0) t@4)) (- (/ 1 2))) (<= t@4 7.0)) (= (+ (* 2.0 (sin t@4)) (+ (* (- 2.0) (cos t@4)) y1@4)) 0.0)) (= (+ (* 2.0 (sin t@4)) (+ (* 2.0 (cos t@4)) (* (- 1.0) y2@4))) 0.0)) (and (and (and (= (+ t@4 (* (- GEN61) t@5)) (- (/ GEN62 2))) (<= t@5 GEN60)) (= (+ (* GEN56 (sin t@5)) (+ (* (- GEN58) (cos t@5)) y1@5)) GEN59)) (= (+ (* GEN56 (sin t@5)) (+ (* GEN55 (cos t@5)) (* (- GEN54) y2@5))) GEN57)) (and (and (and (= (+ t@5 (* (- GEN51) t@6)) (- (/ GEN52 GEN53))) (<= t@6 GEN50)) (= (+ (* GEN46 (sin t@6)) (+ (* (- GEN48) (cos t@6)) y1@6)) GEN49)) (= (+ (* GEN46 (sin t@6)) (+ (* GEN45 (cos t@6)) (* (- GEN44) y2@6))) GEN47)) (and (and (and (= (+ t@6 (* (- GEN41) t@7)) (- (/ GEN42 GEN43))) (<= t@7 GEN40)) (= (+ (* GEN36 (sin t@7)) (+ (* (- GEN38) (cos t@7)) y1@7)) GEN39)) (= (+ (* GEN36 (sin t@7)) (+ (* GEN35 (cos t@7)) (* (- GEN34) y2@7))) GEN37)) (and (and (and (= (+ t@7 (* (- GEN31) t@8)) (- (/ GEN32 GEN33))) (<= t@8 GEN30)) (= (+ (* GEN26 (sin t@8)) (+ (* (- GEN28) (cos t@8)) y1@8)) GEN29)) (= (+ (* GEN26 (sin t@8)) (+ (* GEN25 (cos t@8)) (* (- GEN24) y2@8))) GEN27)) (and (and (and (= (+ t@8 (* (- GEN21) t@9)) (- (/ GEN22 GEN23))) (<= t@9 GEN20)) (= (+ (* GEN16 (sin t@9)) (+ (* (- GEN18) (cos t@9)) y1@9)) GEN19)) (= (+ (* GEN16 (sin t@9)) (+ (* GEN15 (cos t@9)) (* (- GEN14) y2@9))) GEN17)) (and (and (and (= (+ t@9 (* (- GEN11) t@10)) (- (/ GEN12 GEN13))) (<= t@10 GEN10)) (= (+ y1@10 (+ (* GEN8 (sin t@10)) (* (- GEN5) (cos t@10)))) GEN9)) (= (+ y2@10 (+ (* (- GEN6) (sin t@10)) (* (- GEN5) (cos t@10)))) GEN7)) (not (and (and (and (<= (- GEN4) y1@10) (<= y1@10 GEN3)) (<= y2@10 GEN2)) (<= (- GEN1) y2@10)))))
(assert (= BAV1 (and (and (and (= (+ (* 2.0 (sin t@0)) (+ (* 2.0 (cos t@0)) (* (- 1.0) y2@0))) 0.0) (= (+ (* 2.0 (sin t@0)) (+ (* (- 2.0) (cos t@0)) y1@0)) 0.0)) (= t@0 0.0)) (and (and (and (= (+ t@0 (* (- 1.0) t@1)) (- (/ 1 2))) (<= t@1 7.0)) (= (+ (* 2.0 (sin t@1)) (+ (* (- 2.0) (cos t@1)) y1@1)) 0.0)) (= (+ (* 2.0 (sin t@1)) (+ (* 2.0 (cos t@1)) (* (- 1.0) y2@1))) 0.0)) (and (and (and (= (+ t@1 (* (- 1.0) t@2)) (- (/ 1 2))) (<= t@2 7.0)) (= (+ (* 2.0 (sin t@2)) (+ (* (- 2.0) (cos t@2)) y1@2)) 0.0)) (= (+ (* 2.0 (sin t@2)) (+ (* 2.0 (cos t@2)) (* (- 1.0) y2@2))) 0.0)) (and (and (and (= (+ t@2 (* (- 1.0) t@3)) (- (/ 1 2))) (<= t@3 7.0)) (= (+ (* 2.0 (sin t@3)) (+ (* (- 2.0) (cos t@3)) y1@3)) 0.0)) (= (+ (* 2.0 (sin t@3)) (+ (* 2.0 (cos t@3)) (* (- 1.0) y2@3))) 0.0)) (and (and (and (= (+ t@3 (* (- 1.0) t@4)) (- (/ 1 2))) (<= t@4 7.0)) (= (+ (* 2.0 (sin t@4)) (+ (* (- 2.0) (cos t@4)) y1@4)) 0.0)) (= (+ (* 2.0 (sin t@4)) (+ (* 2.0 (cos t@4)) (* (- 1.0) y2@4))) 0.0)) (and (and (and (= (+ t@4 (* (- GEN61) t@5)) (- (/ GEN62 2))) (<= t@5 GEN60)) (= (+ (* GEN56 (sin t@5)) (+ (* (- GEN58) (cos t@5)) y1@5)) GEN59)) (= (+ (* GEN56 (sin t@5)) (+ (* GEN55 (cos t@5)) (* (- GEN54) y2@5))) GEN57)) (and (and (and (= (+ t@5 (* (- GEN51) t@6)) (- (/ GEN52 GEN53))) (<= t@6 GEN50)) (= (+ (* GEN46 (sin t@6)) (+ (* (- GEN48) (cos t@6)) y1@6)) GEN49)) (= (+ (* GEN46 (sin t@6)) (+ (* GEN45 (cos t@6)) (* (- GEN44) y2@6))) GEN47)) (and (and (and (= (+ t@6 (* (- GEN41) t@7)) (- (/ GEN42 GEN43))) (<= t@7 GEN40)) (= (+ (* GEN36 (sin t@7)) (+ (* (- GEN38) (cos t@7)) y1@7)) GEN39)) (= (+ (* GEN36 (sin t@7)) (+ (* GEN35 (cos t@7)) (* (- GEN34) y2@7))) GEN37)) (and (and (and (= (+ t@7 (* (- GEN31) t@8)) (- (/ GEN32 GEN33))) (<= t@8 GEN30)) (= (+ (* GEN26 (sin t@8)) (+ (* (- GEN28) (cos t@8)) y1@8)) GEN29)) (= (+ (* GEN26 (sin t@8)) (+ (* GEN25 (cos t@8)) (* (- GEN24) y2@8))) GEN27)) (and (and (and (= (+ t@8 (* (- GEN21) t@9)) (- (/ GEN22 GEN23))) (<= t@9 GEN20)) (= (+ (* GEN16 (sin t@9)) (+ (* (- GEN18) (cos t@9)) y1@9)) GEN19)) (= (+ (* GEN16 (sin t@9)) (+ (* GEN15 (cos t@9)) (* (- GEN14) y2@9))) GEN17)) (and (and (and (= (+ t@9 (* (- GEN11) t@10)) (- (/ GEN12 GEN13))) (<= t@10 GEN10)) (= (+ y1@10 (+ (* GEN8 (sin t@10)) (* (- GEN5) (cos t@10)))) GEN9)) (= (+ y2@10 (+ (* (- GEN6) (sin t@10)) (* (- GEN5) (cos t@10)))) GEN7)) (not (and (and (and (<= (- GEN4) y1@10) (<= y1@10 GEN3)) (<= y2@10 GEN2)) (<= (- GEN1) y2@10))))))
(assert (= BAV2 (and (and (= (+ (* 2.0 (sin t@0)) (+ (* 2.0 (cos t@0)) (* (- 1.0) y2@0))) 0.0) (= (+ (* 2.0 (sin t@0)) (+ (* (- 2.0) (cos t@0)) y1@0)) 0.0)) (= t@0 0.0))))
(assert (= BAV3 (and (= (+ (* 2.0 (sin t@0)) (+ (* 2.0 (cos t@0)) (* (- 1.0) y2@0))) 0.0) (= (+ (* 2.0 (sin t@0)) (+ (* (- 2.0) (cos t@0)) y1@0)) 0.0))))
(assert (= BAV4 (= (+ (* 2.0 (sin t@0)) (+ (* 2.0 (cos t@0)) (* (- 1.0) y2@0))) 0.0)))
(assert (= BAV5 (= (+ (* 2.0 (sin t@0)) (+ (* (- 2.0) (cos t@0)) y1@0)) 0.0)))
(assert (= BAV6 (= t@0 0.0)))
(assert (= BAV7 (and (and (and (= (+ t@0 (* (- 1.0) t@1)) (- (/ 1 2))) (<= t@1 7.0)) (= (+ (* 2.0 (sin t@1)) (+ (* (- 2.0) (cos t@1)) y1@1)) 0.0)) (= (+ (* 2.0 (sin t@1)) (+ (* 2.0 (cos t@1)) (* (- 1.0) y2@1))) 0.0))))
(assert (= BAV8 (and (and (= (+ t@0 (* (- 1.0) t@1)) (- (/ 1 2))) (<= t@1 7.0)) (= (+ (* 2.0 (sin t@1)) (+ (* (- 2.0) (cos t@1)) y1@1)) 0.0))))
(assert (= BAV9 (and (= (+ t@0 (* (- 1.0) t@1)) (- (/ 1 2))) (<= t@1 7.0))))
(assert (= BAV10 (= (+ t@0 (* (- 1.0) t@1)) (- (/ 1 2)))))
(assert (= BAV11 (<= t@1 7.0)))
(assert (= BAV12 (= (+ (* 2.0 (sin t@1)) (+ (* (- 2.0) (cos t@1)) y1@1)) 0.0)))
(assert (= BAV13 (= (+ (* 2.0 (sin t@1)) (+ (* 2.0 (cos t@1)) (* (- 1.0) y2@1))) 0.0)))
(assert (= BAV14 (and (and (and (= (+ t@1 (* (- 1.0) t@2)) (- (/ 1 2))) (<= t@2 7.0)) (= (+ (* 2.0 (sin t@2)) (+ (* (- 2.0) (cos t@2)) y1@2)) 0.0)) (= (+ (* 2.0 (sin t@2)) (+ (* 2.0 (cos t@2)) (* (- 1.0) y2@2))) 0.0))))
(assert (= BAV15 (and (and (= (+ t@1 (* (- 1.0) t@2)) (- (/ 1 2))) (<= t@2 7.0)) (= (+ (* 2.0 (sin t@2)) (+ (* (- 2.0) (cos t@2)) y1@2)) 0.0))))
(assert (= BAV16 (and (= (+ t@1 (* (- 1.0) t@2)) (- (/ 1 2))) (<= t@2 7.0))))
(assert (= BAV17 (= (+ t@1 (* (- 1.0) t@2)) (- (/ 1 2)))))
(assert (= BAV18 (<= t@2 7.0)))
(assert (= BAV19 (= (+ (* 2.0 (sin t@2)) (+ (* (- 2.0) (cos t@2)) y1@2)) 0.0)))
(assert (= BAV20 (= (+ (* 2.0 (sin t@2)) (+ (* 2.0 (cos t@2)) (* (- 1.0) y2@2))) 0.0)))
(assert (= BAV21 (and (and (and (= (+ t@2 (* (- 1.0) t@3)) (- (/ 1 2))) (<= t@3 7.0)) (= (+ (* 2.0 (sin t@3)) (+ (* (- 2.0) (cos t@3)) y1@3)) 0.0)) (= (+ (* 2.0 (sin t@3)) (+ (* 2.0 (cos t@3)) (* (- 1.0) y2@3))) 0.0))))
(assert (= BAV22 (and (and (= (+ t@2 (* (- 1.0) t@3)) (- (/ 1 2))) (<= t@3 7.0)) (= (+ (* 2.0 (sin t@3)) (+ (* (- 2.0) (cos t@3)) y1@3)) 0.0))))
(assert (= BAV23 (and (= (+ t@2 (* (- 1.0) t@3)) (- (/ 1 2))) (<= t@3 7.0))))
(assert (= BAV24 (= (+ t@2 (* (- 1.0) t@3)) (- (/ 1 2)))))
(assert (= BAV25 (<= t@3 7.0)))
(assert (= BAV26 (= (+ (* 2.0 (sin t@3)) (+ (* (- 2.0) (cos t@3)) y1@3)) 0.0)))
(assert (= BAV27 (= (+ (* 2.0 (sin t@3)) (+ (* 2.0 (cos t@3)) (* (- 1.0) y2@3))) 0.0)))
(assert (= BAV28 (and (and (and (= (+ t@3 (* (- 1.0) t@4)) (- (/ 1 2))) (<= t@4 7.0)) (= (+ (* 2.0 (sin t@4)) (+ (* (- 2.0) (cos t@4)) y1@4)) 0.0)) (= (+ (* 2.0 (sin t@4)) (+ (* 2.0 (cos t@4)) (* (- 1.0) y2@4))) 0.0))))
(assert (= BAV29 (and (and (= (+ t@3 (* (- 1.0) t@4)) (- (/ 1 2))) (<= t@4 7.0)) (= (+ (* 2.0 (sin t@4)) (+ (* (- 2.0) (cos t@4)) y1@4)) 0.0))))
(assert (= BAV30 (and (= (+ t@3 (* (- 1.0) t@4)) (- (/ 1 2))) (<= t@4 7.0))))
(assert (= BAV31 (= (+ t@3 (* (- 1.0) t@4)) (- (/ 1 2)))))
(assert (= BAV32 (<= t@4 7.0)))
(assert (= BAV33 (= (+ (* 2.0 (sin t@4)) (+ (* (- 2.0) (cos t@4)) y1@4)) 0.0)))
(assert (= BAV34 (= (+ (* 2.0 (sin t@4)) (+ (* 2.0 (cos t@4)) (* (- 1.0) y2@4))) 0.0)))
(assert (= BAV35 (and (and (and (= (+ t@4 (* (- GEN61) t@5)) (- (/ GEN62 2))) (<= t@5 GEN60)) (= (+ (* GEN56 (sin t@5)) (+ (* (- GEN58) (cos t@5)) y1@5)) GEN59)) (= (+ (* GEN56 (sin t@5)) (+ (* GEN55 (cos t@5)) (* (- GEN54) y2@5))) GEN57))))
(assert (= BAV36 (and (and (= (+ t@4 (* (- GEN61) t@5)) (- (/ GEN62 2))) (<= t@5 GEN60)) (= (+ (* GEN56 (sin t@5)) (+ (* (- GEN58) (cos t@5)) y1@5)) GEN59))))
(assert (= BAV37 (and (= (+ t@4 (* (- GEN61) t@5)) (- (/ GEN62 2))) (<= t@5 GEN60))))
(assert (= BAV38 (= (+ t@4 (* (- GEN61) t@5)) (- (/ GEN62 2)))))
(assert (= BAV39 (<= t@5 GEN60)))
(assert (= BAV40 (= (+ (* GEN56 (sin t@5)) (+ (* (- GEN58) (cos t@5)) y1@5)) GEN59)))
(assert (= BAV41 (= (+ (* GEN56 (sin t@5)) (+ (* GEN55 (cos t@5)) (* (- GEN54) y2@5))) GEN57)))
(assert (= BAV42 (and (and (and (= (+ t@5 (* (- GEN51) t@6)) (- (/ GEN52 GEN53))) (<= t@6 GEN50)) (= (+ (* GEN46 (sin t@6)) (+ (* (- GEN48) (cos t@6)) y1@6)) GEN49)) (= (+ (* GEN46 (sin t@6)) (+ (* GEN45 (cos t@6)) (* (- GEN44) y2@6))) GEN47))))
(assert (= BAV43 (and (and (= (+ t@5 (* (- GEN51) t@6)) (- (/ GEN52 GEN53))) (<= t@6 GEN50)) (= (+ (* GEN46 (sin t@6)) (+ (* (- GEN48) (cos t@6)) y1@6)) GEN49))))
(assert (= BAV44 (and (= (+ t@5 (* (- GEN51) t@6)) (- (/ GEN52 GEN53))) (<= t@6 GEN50))))
(assert (= BAV45 (= (+ t@5 (* (- GEN51) t@6)) (- (/ GEN52 GEN53)))))
(assert (= BAV46 (<= t@6 GEN50)))
(assert (= BAV47 (= (+ (* GEN46 (sin t@6)) (+ (* (- GEN48) (cos t@6)) y1@6)) GEN49)))
(assert (= BAV48 (= (+ (* GEN46 (sin t@6)) (+ (* GEN45 (cos t@6)) (* (- GEN44) y2@6))) GEN47)))
(assert (= BAV49 (and (and (and (= (+ t@6 (* (- GEN41) t@7)) (- (/ GEN42 GEN43))) (<= t@7 GEN40)) (= (+ (* GEN36 (sin t@7)) (+ (* (- GEN38) (cos t@7)) y1@7)) GEN39)) (= (+ (* GEN36 (sin t@7)) (+ (* GEN35 (cos t@7)) (* (- GEN34) y2@7))) GEN37))))
(assert (= BAV50 (and (and (= (+ t@6 (* (- GEN41) t@7)) (- (/ GEN42 GEN43))) (<= t@7 GEN40)) (= (+ (* GEN36 (sin t@7)) (+ (* (- GEN38) (cos t@7)) y1@7)) GEN39))))
(assert (= BAV51 (and (= (+ t@6 (* (- GEN41) t@7)) (- (/ GEN42 GEN43))) (<= t@7 GEN40))))
(assert (= BAV52 (= (+ t@6 (* (- GEN41) t@7)) (- (/ GEN42 GEN43)))))
(assert (= BAV53 (<= t@7 GEN40)))
(assert (= BAV54 (= (+ (* GEN36 (sin t@7)) (+ (* (- GEN38) (cos t@7)) y1@7)) GEN39)))
(assert (= BAV55 (= (+ (* GEN36 (sin t@7)) (+ (* GEN35 (cos t@7)) (* (- GEN34) y2@7))) GEN37)))
(assert (= BAV56 (and (and (and (= (+ t@7 (* (- GEN31) t@8)) (- (/ GEN32 GEN33))) (<= t@8 GEN30)) (= (+ (* GEN26 (sin t@8)) (+ (* (- GEN28) (cos t@8)) y1@8)) GEN29)) (= (+ (* GEN26 (sin t@8)) (+ (* GEN25 (cos t@8)) (* (- GEN24) y2@8))) GEN27))))
(assert (= BAV57 (and (and (= (+ t@7 (* (- GEN31) t@8)) (- (/ GEN32 GEN33))) (<= t@8 GEN30)) (= (+ (* GEN26 (sin t@8)) (+ (* (- GEN28) (cos t@8)) y1@8)) GEN29))))
(assert (= BAV58 (and (= (+ t@7 (* (- GEN31) t@8)) (- (/ GEN32 GEN33))) (<= t@8 GEN30))))
(assert (= BAV59 (= (+ t@7 (* (- GEN31) t@8)) (- (/ GEN32 GEN33)))))
(assert (= BAV60 (<= t@8 GEN30)))
(assert (= BAV61 (= (+ (* GEN26 (sin t@8)) (+ (* (- GEN28) (cos t@8)) y1@8)) GEN29)))
(assert (= BAV62 (= (+ (* GEN26 (sin t@8)) (+ (* GEN25 (cos t@8)) (* (- GEN24) y2@8))) GEN27)))
(assert (= BAV63 (and (and (and (= (+ t@8 (* (- GEN21) t@9)) (- (/ GEN22 GEN23))) (<= t@9 GEN20)) (= (+ (* GEN16 (sin t@9)) (+ (* (- GEN18) (cos t@9)) y1@9)) GEN19)) (= (+ (* GEN16 (sin t@9)) (+ (* GEN15 (cos t@9)) (* (- GEN14) y2@9))) GEN17))))
(assert (= BAV64 (and (and (= (+ t@8 (* (- GEN21) t@9)) (- (/ GEN22 GEN23))) (<= t@9 GEN20)) (= (+ (* GEN16 (sin t@9)) (+ (* (- GEN18) (cos t@9)) y1@9)) GEN19))))
(assert (= BAV65 (and (= (+ t@8 (* (- GEN21) t@9)) (- (/ GEN22 GEN23))) (<= t@9 GEN20))))
(assert (= BAV66 (= (+ t@8 (* (- GEN21) t@9)) (- (/ GEN22 GEN23)))))
(assert (= BAV67 (<= t@9 GEN20)))
(assert (= BAV68 (= (+ (* GEN16 (sin t@9)) (+ (* (- GEN18) (cos t@9)) y1@9)) GEN19)))
(assert (= BAV69 (= (+ (* GEN16 (sin t@9)) (+ (* GEN15 (cos t@9)) (* (- GEN14) y2@9))) GEN17)))
(assert (= BAV70 (and (and (and (= (+ t@9 (* (- GEN11) t@10)) (- (/ GEN12 GEN13))) (<= t@10 GEN10)) (= (+ y1@10 (+ (* GEN8 (sin t@10)) (* (- GEN5) (cos t@10)))) GEN9)) (= (+ y2@10 (+ (* (- GEN6) (sin t@10)) (* (- GEN5) (cos t@10)))) GEN7))))
(assert (= BAV71 (and (and (= (+ t@9 (* (- GEN11) t@10)) (- (/ GEN12 GEN13))) (<= t@10 GEN10)) (= (+ y1@10 (+ (* GEN8 (sin t@10)) (* (- GEN5) (cos t@10)))) GEN9))))
(assert (= BAV72 (and (= (+ t@9 (* (- GEN11) t@10)) (- (/ GEN12 GEN13))) (<= t@10 GEN10))))
(assert (= BAV73 (= (+ t@9 (* (- GEN11) t@10)) (- (/ GEN12 GEN13)))))
(assert (= BAV74 (<= t@10 GEN10)))
(assert (= BAV75 (= (+ y1@10 (+ (* GEN8 (sin t@10)) (* (- GEN5) (cos t@10)))) GEN9)))
(assert (= BAV76 (= (+ y2@10 (+ (* (- GEN6) (sin t@10)) (* (- GEN5) (cos t@10)))) GEN7)))
(assert (= BAV77 (and (and (and (<= (- GEN4) y1@10) (<= y1@10 GEN3)) (<= y2@10 GEN2)) (<= (- GEN1) y2@10))))
(assert (= BAV78 (and (and (<= (- GEN4) y1@10) (<= y1@10 GEN3)) (<= y2@10 GEN2))))
(assert (= BAV79 (and (<= (- GEN4) y1@10) (<= y1@10 GEN3))))
(assert (= BAV80 (<= (- GEN4) y1@10)))
(assert (= BAV81 (<= y1@10 GEN3)))
(assert (= BAV82 (<= y2@10 GEN2)))
(assert (= BAV83 (<= (- GEN1) y2@10)))
(check-sat)
(get-model)
(exit)